GLPSOL: GLPK LP/MIP Solver, v4.65
Parameter(s) specified in the command line:
 --model solver_drone.mod --data solver_drone_data_30.dat --output solver_drone_solution_30_10.log
 --log solver_drone_cmd_output_30_10.log --tmlim 65
Reading model section from solver_drone.mod...
41 lines were read
Reading data section from solver_drone_data_30.dat...
99 lines were read
Generating f...
Generating package_deliverd_once...
Generating package_well_delivered...
Generating time_spent_flying...
Generating autonomy_not_exceeded...
Generating check_time_max...
Model has been successfully generated
GLPK Integer Optimizer, v4.65
17805 rows, 17681 columns, 53611 non-zeros
17681 integer variables, 17670 of which are binary
Preprocessing...
134 rows, 17681 columns, 35940 non-zeros
17681 integer variables, 17670 of which are binary
Scaling...
 A: min|aij| =  1.000e+00  max|aij| =  2.624e+03  ratio =  2.624e+03
GM: min|aij| =  4.450e-01  max|aij| =  2.247e+00  ratio =  5.051e+00
EQ: min|aij| =  1.980e-01  max|aij| =  1.000e+00  ratio =  5.051e+00
2N: min|aij| =  2.031e-01  max|aij| =  1.320e+00  ratio =  6.500e+00
Constructing initial basis...
Size of triangular part is 134
Solving LP relaxation...
GLPK Simplex Optimizer, v4.65
134 rows, 17681 columns, 35940 non-zeros
      0: obj =   0.000000000e+00 inf =   2.195e+03 (1)
    184: obj =   7.024000000e+03 inf =   1.002e-13 (0) 1
OPTIMAL LP SOLUTION FOUND
Integer optimization begins...
Long-step dual simplex will be used
+   184: mip =     not found yet >=              -inf        (1; 0)
+  5176: >>>>>   7.992000000e+03 >=   7.024000000e+03  12.1% (167; 0)
+  6543: >>>>>   7.944000000e+03 >=   7.024000000e+03  11.6% (154; 218)
+  8028: >>>>>   7.872000000e+03 >=   7.024000000e+03  10.8% (163; 317)
+ 10929: >>>>>   7.680000000e+03 >=   7.024000000e+03   8.5% (238; 333)
+ 11956: >>>>>   7.608000000e+03 >=   7.024000000e+03   7.7% (270; 361)
+ 14951: >>>>>   7.600000000e+03 >=   7.024000000e+03   7.6% (300; 500)
+ 17048: >>>>>   7.448000000e+03 >=   7.024000000e+03   5.7% (370; 539)
+ 18851: >>>>>   7.344000000e+03 >=   7.024000000e+03   4.4% (313; 750)
+ 19880: >>>>>   7.336000000e+03 >=   7.024000000e+03   4.3% (205; 1144)
+ 20921: >>>>>   7.216000000e+03 >=   7.024000000e+03   2.7% (265; 1169)
+ 24332: >>>>>   7.184000000e+03 >=   7.024000000e+03   2.2% (343; 1328)
+ 27797: >>>>>   7.136000000e+03 >=   7.024000000e+03   1.6% (572; 1379)
+ 33363: >>>>>   7.128000000e+03 >=   7.024000000e+03   1.5% (865; 1626)
+ 35290: >>>>>   7.112000000e+03 >=   7.024000000e+03   1.2% (913; 1829)
+ 39322: mip =   7.112000000e+03 >=   7.024000000e+03   1.2% (1224; 1895)
+ 42917: >>>>>   7.104000000e+03 >=   7.024000000e+03   1.1% (1533; 1932)
+ 47306: mip =   7.104000000e+03 >=   7.024000000e+03   1.1% (1454; 2678)
+ 50773: mip =   7.104000000e+03 >=   7.024000000e+03   1.1% (1769; 2712)
+ 53309: >>>>>   7.088000000e+03 >=   7.024000000e+03   0.9% (2028; 2733)
+ 53477: >>>>>   7.080000000e+03 >=   7.024000000e+03   0.8% (1874; 3029)
+ 55246: >>>>>   7.064000000e+03 >=   7.024000000e+03   0.6% (1785; 3494)
+ 58249: mip =   7.064000000e+03 >=   7.024000000e+03   0.6% (1838; 4026)
Time used: 60.0 secs.  Memory used: 40.9 Mb.
+ 60956: mip =   7.064000000e+03 >=   7.024000000e+03   0.6% (2147; 4063)
+ 63001: mip =   7.064000000e+03 >=   7.024000000e+03   0.6% (2386; 4086)
TIME LIMIT EXCEEDED; SEARCH TERMINATED
Time used:   65.1 secs
Memory used: 43.4 Mb (45482130 bytes)
The package 1 is delivered by the drone 2 to the house 1
The package 2 is delivered by the drone 7 to the house 1
The package 3 is delivered by the drone 2 to the house 1
The package 4 is delivered by the drone 10 to the house 2
The package 5 is delivered by the drone 3 to the house 2
The package 6 is delivered by the drone 8 to the house 2
The package 7 is delivered by the drone 6 to the house 3
The package 8 is delivered by the drone 10 to the house 3
The package 9 is delivered by the drone 5 to the house 4
The package 10 is delivered by the drone 5 to the house 4
The package 11 is delivered by the drone 10 to the house 5
The package 12 is delivered by the drone 9 to the house 5
The package 13 is delivered by the drone 8 to the house 6
The package 14 is delivered by the drone 2 to the house 6
The package 15 is delivered by the drone 6 to the house 7
The package 16 is delivered by the drone 3 to the house 8
The package 17 is delivered by the drone 5 to the house 8
The package 18 is delivered by the drone 8 to the house 10
The package 19 is delivered by the drone 4 to the house 10
The package 20 is delivered by the drone 5 to the house 10
The package 21 is delivered by the drone 8 to the house 11
The package 22 is delivered by the drone 1 to the house 11
The package 23 is delivered by the drone 9 to the house 11
The package 24 is delivered by the drone 6 to the house 12
The package 25 is delivered by the drone 8 to the house 12
The package 26 is delivered by the drone 7 to the house 12
The package 27 is delivered by the drone 3 to the house 14
The package 28 is delivered by the drone 8 to the house 14
The package 29 is delivered by the drone 7 to the house 15
The package 30 is delivered by the drone 1 to the house 15
The package 31 is delivered by the drone 6 to the house 16
The package 32 is delivered by the drone 8 to the house 17
The package 33 is delivered by the drone 9 to the house 17
The package 34 is delivered by the drone 4 to the house 19
The package 35 is delivered by the drone 1 to the house 19
The package 36 is delivered by the drone 3 to the house 19
The package 37 is delivered by the drone 10 to the house 20
The package 38 is delivered by the drone 4 to the house 20
The package 39 is delivered by the drone 10 to the house 21
The package 40 is delivered by the drone 4 to the house 21
The package 41 is delivered by the drone 4 to the house 21
The package 42 is delivered by the drone 2 to the house 23
The package 43 is delivered by the drone 6 to the house 23
The package 44 is delivered by the drone 10 to the house 24
The package 45 is delivered by the drone 7 to the house 24
The package 46 is delivered by the drone 1 to the house 24
The package 47 is delivered by the drone 4 to the house 25
The package 48 is delivered by the drone 6 to the house 25
The package 49 is delivered by the drone 8 to the house 26
The package 50 is delivered by the drone 7 to the house 27
The package 51 is delivered by the drone 7 to the house 28
The package 52 is delivered by the drone 9 to the house 28
The package 53 is delivered by the drone 3 to the house 28
The package 54 is delivered by the drone 9 to the house 29
The package 55 is delivered by the drone 1 to the house 29
The package 56 is delivered by the drone 2 to the house 29
The package 57 is delivered by the drone 5 to the house 31
Model has been successfully processed
Writing MIP solution to 'solver_drone_solution_30_10.log'...
